Maximize

29.5 b0 + 45.5 b1 + 6 b2 + 10 b3 + 23.5 b4 + 6 b5 + 10 b6 + 54.5 b7 + 6 b8 + 10 b9 + 53.5 b10 + 37.0 b11 + 41.0 b12 + 11 b13.v0 + 11 b13.v1 + 171.0 b14 + 45.0 b15 + 143.0 b16.v0 + 143.0 b16.v1 + 31 b17 + 12 b18.v0 + 10 b18.v1 + 28.5 b19 + 6 b20 + 18.5 b21.v0 + 18.5 b21.v1 + 18.5 b21.v2 + 22.5 b22 + 48.5 b23 + 496.0 b24 + 82.5 b25 + 305.5 b26.v0 + 305.5 b26.v1 + 131.0 b27 + 37.0 b28.v0 + 35.0 b28.v1 + 82.5 b29 + 6 b30 + 10 b31 + 37.0 b32 + 43.0 b33 + 63.0 b34 + 149.5 b35.v0 + 147.5 b35.v1 + 80.5 b36.v0 + 80.5 b36.v1 + 78.5 b36.v2 + 10 b37 + 216.5 b38 + 50.5 b39 + 12.5 x14_0.m + 12.5 x14_1.m + 12.5 x14_2.m + 12.5 x14_3.m + 12.5 x14_4.m + 12.5 x14_5.m + 12.5 x14_6.m + 12.5 x15_0.m + 12.5 x16_0.m + 12.5 x16_1.m + 12.5 x16_2.m + 12.5 x16_3.m + 12.5 x17_0.m + 12.5 x17_1.m + 12.5 x18_0.m + 12.5 x19_0.m + 12.5 dr13_0.m + 12.5 dr13_1.m + 12.5 dr14_0.m + 12.5 dr14_1.m + 12.5 dr14_2.m + 12.5 dr14_3.m + 12.5 dr14_4.m + 12.5 dr14_5.m + 12.5 dr14_6.m + 12.5 dr14_7.m + 12.5 dr14_8.m + 12.5 dr14_9.m + 12.5 dr14_10.m + 12.5 dr14_11.m + 12.5 dr14_12.m + 12.5 dr14_13.m + 12.5 dr14_14.m + 12.5 dr14_15.m + 12.5 dr14_16.m + 12.5 dr14_17.m + 12.5 dr14_18.m + 12.5 dr14_19.m + 12.5 dr14_20.m + 12.5 dr15_0.m + 12.5 dr15_1.m + 12.5 dr16_0.m + 12.5 dr16_1.m + 12.5 dr16_2.m + 12.5 dr16_3.m + 12.5 dr16_4.m + 12.5 dr16_5.m + 12.5 dr16_6.m + 12.5 dr16_7.m + 12.5 dr16_8.m + 12.5 dr17_0.m + 12.5 dr17_1.m + 12.5 dr17_2.m + 12.5 dr17_3.m + 12.5 dr17_4.m + 12.5 dr17_5.m + 12.5 dr17_6.m + 12.5 dr18_0.m + 12.5 dr19_0.m


Subject to

\ === tcfg constraints ===
dSta_0 = 1
b0 - dSta_0 = 0
b0 - d0_1 = 0
b1 - d0_1 = 0
b1 - d1_4 - d1_2 = 0
b2 - d1_2 = 0
b2 - d2_3 = 0
b3 - d2_3 = 0
b4 - d1_4 = 0
b4 - d4_7 - d4_5 = 0
b5 - d4_5 = 0
b5 - d5_6 = 0
b6 - d5_6 = 0
b7 - d4_7 = 0
b7 - d7_10 - d7_8 = 0
b8 - d7_8 = 0
b8 - d8_9 = 0
b9 - d8_9 = 0
b10 - d7_10 = 0
b10 - d10_29 - d10_11 = 0
b11 - d10_11 = 0
b11 - d11_23 - d11_12 = 0
b12 - d11_12 = 0
b12 - d12_21 - d12_13 = 0
b13 - d19_13 - d12_13 = 0
b13 - d13_14 = 0
b14 - d13_14 = 0
b14 - d14_16 - d14_15 = 0
b15 - d14_15 = 0
b15 - d15_16 = 0
b16 - d14_16 - d15_16 = 0
b16 - d16_18 - d16_17 = 0
b17 - d16_17 = 0
b17 - d17_18 = 0
b18 - d16_18 - d17_18 = 0
b18 - d18_19 = 0
b19 - d18_19 = 0
b19 - d19_13 - d19_20 = 0
b20 - d19_20 = 0
b20 - d20_21 = 0
b21 - d20_21 - d12_21 - d28_21 = 0
b21 - d21_22 = 0
b22 - d21_22 = 0
b23 - d11_23 = 0
b23 - d23_24 = 0
b24 - d23_24 = 0
b24 - d24_26 - d24_25 = 0
b25 - d24_25 = 0
b25 - d25_26 = 0
b26 - d24_26 - d25_26 = 0
b26 - d26_28 - d26_27 = 0
b27 - d26_27 = 0
b27 - d27_28 = 0
b28 - d26_28 - d27_28 = 0
b28 - d28_21 = 0
b29 - d10_29 = 0
b29 - d29_32 - d29_30 = 0
b30 - d29_30 = 0
b30 - d30_31 = 0
b31 - d30_31 = 0
b32 - d29_32 = 0
b32 - d32_38 - d32_33 = 0
b33 - d32_33 = 0
b33 - d33_35 - d33_34 = 0
b34 - d33_34 = 0
b34 - d34_35 = 0
b35 - d33_35 - d34_35 = 0
b35 - d35_36 = 0
b36 - d35_36 - d38_36 - d39_36 = 0
b36 - d36_37 = 0
b37 - d36_37 = 0
b38 - d32_38 = 0
b38 - d38_36 - d38_39 = 0
b39 - d38_39 = 0
b39 - d39_36 = 0


\ === header constraints ===
b13 - 64 d12_13 <= 0


\ === context constraints ===
b13 - b13.v0 - b13.v1 = 0
b13.v0 - d19_13 = 0
b13.v1 - d12_13 = 0
b16 - b16.v0 - b16.v1 = 0
b16.v0 - d14_16 = 0
b16.v1 - d15_16 = 0
b18 - b18.v0 - b18.v1 = 0
b18.v0 - d16_18 = 0
b18.v1 - d17_18 = 0
b21 - b21.v0 - b21.v1 - b21.v2 = 0
b21.v1 - d20_21 = 0
b21.v2 - d12_21 = 0
b21.v3 - d28_21 = 0
b26 - b26.v0 - b26.v1 = 0
b26.v0 - d24_26 = 0
b26.v1 - d25_26 = 0
b28 - b28.v0 - b28.v1 = 0
b28.v0 - d26_28 = 0
b28.v1 - d27_28 = 0
b35 - b35.v0 - b35.v1 = 0
b35.v0 - d33_35 = 0
b35.v1 - d34_35 = 0
b36 - b36.v0 - b36.v1 - b36.v2 = 0
b36.v0 - d35_36 = 0
b36.v1 - d38_36 = 0
b36.v2 - d39_36 = 0


\ === inst cache constraints ===
b14 - x14_0.h - x14_0.m = 0
x14_0.m <= 1
b14 - x14_1.h - x14_1.m = 0
x14_1.m <= 1
b14 - x14_2.h - x14_2.m = 0
x14_2.m <= 1
b14 - x14_3.h - x14_3.m = 0
x14_3.m <= 1
b14 - x14_4.h - x14_4.m = 0
x14_4.m <= 1
b14 - x14_5.h - x14_5.m = 0
x14_5.m <= 1
b14 - x14_6.h - x14_6.m = 0
x14_6.m <= 1
b15 - x15_0.h - x15_0.m = 0
x15_0.m <= 1
b16 - x16_0.h - x16_0.m = 0
x16_0.m <= 1
b16 - x16_1.h - x16_1.m = 0
x16_1.m <= 1
b16 - x16_2.h - x16_2.m = 0
x16_2.m <= 1
b16 - x16_3.h - x16_3.m = 0
x16_3.m <= 1
b17 - x17_0.h - x17_0.m = 0
x17_0.m <= 1
b17 - x17_1.h - x17_1.m = 0
x17_1.m <= 1
b18 - x18_0.h - x18_0.m = 0
x18_0.m <= 1
b19 - x19_0.h - x19_0.m = 0
x19_0.m <= 1


\ === data cache constraints ===
b13 - dr13_0.h - dr13_0.m = 0
dr13_0.m <= 1
b13 - dr13_1.h - dr13_1.m = 0
dr13_1.m <= 1
b14 - dr14_0.h - dr14_0.m = 0
dr14_0.m <= 1
b14 - dr14_1.h - dr14_1.m = 0
dr14_1.m <= 1
b14 - dr14_2.h - dr14_2.m = 0
dr14_2.m <= 1
b14 - dr14_3.h - dr14_3.m = 0
dr14_3.m <= 1
b14 - dr14_4.h - dr14_4.m = 0
dr14_4.m <= 1
b14 - dr14_5.h - dr14_5.m = 0
dr14_5.m <= 1
b14 - dr14_6.h - dr14_6.m = 0
dr14_6.m <= 1
b14 - dr14_7.h - dr14_7.m = 0
dr14_7.m <= 1
b14 - dr14_8.h - dr14_8.m = 0
dr14_8.m <= 1
b14 - dr14_9.h - dr14_9.m = 0
dr14_9.m <= 1
b14 - dr14_10.h - dr14_10.m = 0
dr14_10.m <= 1
b14 - dr14_11.h - dr14_11.m = 0
dr14_11.m <= 1
b14 - dr14_12.h - dr14_12.m = 0
dr14_12.m <= 1
b14 - dr14_13.h - dr14_13.m = 0
dr14_13.m <= 1
b14 - dr14_14.h - dr14_14.m = 0
dr14_14.m <= 1
b14 - dr14_15.h - dr14_15.m = 0
dr14_15.m <= 1
b14 - dr14_16.h - dr14_16.m = 0
dr14_16.m <= 1
b14 - dr14_17.h - dr14_17.m = 0
dr14_17.m <= 1
b14 - dr14_18.h - dr14_18.m = 0
dr14_18.m <= 1
b14 - dr14_19.h - dr14_19.m = 0
dr14_19.m <= 1
b14 - dr14_20.h - dr14_20.m = 0
dr14_20.m <= 1
b15 - dr15_0.h - dr15_0.m = 0
dr15_0.m <= 1
b15 - dr15_1.h - dr15_1.m = 0
dr15_1.m <= 1
b16 - dr16_0.h - dr16_0.m = 0
dr16_0.m <= 1
b16 - dr16_1.h - dr16_1.m = 0
dr16_1.m <= 1
b16 - dr16_2.h - dr16_2.m = 0
dr16_2.m <= 1
b16 - dr16_3.h - dr16_3.m = 0
dr16_3.m <= 1
b16 - dr16_4.h - dr16_4.m = 0
dr16_4.m <= 1
b16 - dr16_5.h - dr16_5.m = 0
dr16_5.m <= 1
b16 - dr16_6.h - dr16_6.m = 0
dr16_6.m <= 1
b16 - dr16_7.h - dr16_7.m = 0
dr16_7.m <= 1
b16 - dr16_8.h - dr16_8.m = 0
dr16_8.m <= 1
b17 - dr17_0.h - dr17_0.m = 0
dr17_0.m <= 1
b17 - dr17_1.h - dr17_1.m = 0
dr17_1.m <= 1
b17 - dr17_2.h - dr17_2.m = 0
dr17_2.m <= 1
b17 - dr17_3.h - dr17_3.m = 0
dr17_3.m <= 1
b17 - dr17_4.h - dr17_4.m = 0
dr17_4.m <= 1
b17 - dr17_5.h - dr17_5.m = 0
dr17_5.m <= 1
b17 - dr17_6.h - dr17_6.m = 0
dr17_6.m <= 1
b18 - dr18_0.h - dr18_0.m = 0
dr18_0.m <= 1
b19 - dr19_0.h - dr19_0.m = 0
dr19_0.m <= 1


Generals


b0
b1
b2
b3
b4
b5
b6
b7
b8
b9
b10
b11
b12
b13
b13.v0
b13.v1
b14
b15
b16
b16.v0
b16.v1
b17
b18
b18.v0
b18.v1
b19
b20
b21
b21.v0
b21.v1
b21.v2
b22
b23
b24
b25
b26
b26.v0
b26.v1
b27
b28
b28.v0
b28.v1
b29
b30
b31
b32
b33
b34
b35
b35.v0
b35.v1
b36
b36.v0
b36.v1
b36.v2
b37
b38
b39
d0_1
d1_2
d1_4
d2_3
d4_5
d4_7
d5_6
d7_8
d7_10
d8_9
d10_11
d10_29
d11_12
d11_23
d12_13
d12_21
d13_14
d14_15
d14_16
d15_16
d16_17
d16_18
d17_18
d18_19
d19_13
d19_20
d20_21
d21_22
d23_24
d24_25
d24_26
d25_26
d26_27
d26_28
d27_28
d28_21
d29_30
d29_32
d30_31
d32_33
d32_38
d33_34
d33_35
d34_35
d35_36
d36_37
d38_36
d38_39
d39_36
dSta_0
dr13_0.h
dr13_0.m
dr13_1.h
dr13_1.m
dr14_0.h
dr14_0.m
dr14_1.h
dr14_1.m
dr14_2.h
dr14_2.m
dr14_3.h
dr14_3.m
dr14_4.h
dr14_4.m
dr14_5.h
dr14_5.m
dr14_6.h
dr14_6.m
dr14_7.h
dr14_7.m
dr14_8.h
dr14_8.m
dr14_9.h
dr14_9.m
dr14_10.h
dr14_10.m
dr14_11.h
dr14_11.m
dr14_12.h
dr14_12.m
dr14_13.h
dr14_13.m
dr14_14.h
dr14_14.m
dr14_15.h
dr14_15.m
dr14_16.h
dr14_16.m
dr14_17.h
dr14_17.m
dr14_18.h
dr14_18.m
dr14_19.h
dr14_19.m
dr14_20.h
dr14_20.m
dr15_0.h
dr15_0.m
dr15_1.h
dr15_1.m
dr16_0.h
dr16_0.m
dr16_1.h
dr16_1.m
dr16_2.h
dr16_2.m
dr16_3.h
dr16_3.m
dr16_4.h
dr16_4.m
dr16_5.h
dr16_5.m
dr16_6.h
dr16_6.m
dr16_7.h
dr16_7.m
dr16_8.h
dr16_8.m
dr17_0.h
dr17_0.m
dr17_1.h
dr17_1.m
dr17_2.h
dr17_2.m
dr17_3.h
dr17_3.m
dr17_4.h
dr17_4.m
dr17_5.h
dr17_5.m
dr17_6.h
dr17_6.m
dr18_0.h
dr18_0.m
dr19_0.h
dr19_0.m
x14_0.h
x14_0.m
x14_1.h
x14_1.m
x14_2.h
x14_2.m
x14_3.h
x14_3.m
x14_4.h
x14_4.m
x14_5.h
x14_5.m
x14_6.h
x14_6.m
x15_0.h
x15_0.m
x16_0.h
x16_0.m
x16_1.h
x16_1.m
x16_2.h
x16_2.m
x16_3.h
x16_3.m
x17_0.h
x17_0.m
x17_1.h
x17_1.m
x18_0.h
x18_0.m
x19_0.h
x19_0.m


End
\ total cons: 246    total vars: 226
